% seed = 8900662

mint = 51;
% maxt = 232;

nActs = 42;
dur = [0,9,6,8,2,4,9,9,10,8,10,5,7,7,4,2,6,8,8,1,2,6,7,10,3,1,8,10,8,2,10,9,3,2,2,6,3,6,6,2,3,0];

nSkills = 4;
sreq = [| 0,0,0,0,
	| 5,4,0,0,
	| 1,2,3,1,
	| 2,5,7,3,
	| 3,4,4,3,
	| 0,0,5,7,
	| 7,1,0,1,
	| 2,3,6,5,
	| 3,4,3,4,
	| 5,0,0,5,
	| 3,0,7,5,
	| 0,0,7,6,
	| 3,0,7,4,
	| 3,3,1,2,
	| 3,0,4,2,
	| 0,3,4,7,
	| 6,4,5,2,
	| 5,0,6,3,
	| 0,3,4,5,
	| 5,7,0,5,
	| 4,5,0,5,
	| 1,3,2,1,
	| 4,6,0,3,
	| 0,0,7,7,
	| 0,4,0,2,
	| 7,0,3,0,
	| 3,3,2,4,
	| 0,5,0,5,
	| 0,4,5,6,
	| 3,3,3,6,
	| 4,2,3,3,
	| 6,0,0,3,
	| 7,0,0,6,
	| 0,1,3,1,
	| 7,0,5,0,
	| 5,0,7,0,
	| 0,3,7,0,
	| 0,5,0,3,
	| 2,3,3,6,
	| 0,7,7,4,
	| 2,7,0,0,
	| 0,0,0,0, |];

nResources = 45;
mastery = [| false,false,true,false,
	| true,false,true,true,
	| true,true,true,false,
	| true,false,true,false,
	| false,true,true,true,
	| false,true,true,true,
	| false,true,false,false,
	| true,true,true,false,
	| true,false,true,true,
	| false,true,false,true,
	| false,true,true,true,
	| true,true,false,true,
	| false,true,false,false,
	| false,true,false,false,
	| true,false,true,false,
	| false,false,true,true,
	| true,true,false,true,
	| true,true,true,false,
	| false,false,true,false,
	| false,false,true,false,
	| false,false,false,true,
	| false,true,true,true,
	| true,false,true,true,
	| false,false,false,true,
	| true,false,true,false,
	| false,false,false,true,
	| false,true,false,true,
	| true,true,false,false,
	| false,true,true,true,
	| true,false,true,true,
	| false,true,false,false,
	| true,true,false,false,
	| true,true,false,true,
	| true,false,false,true,
	| false,false,false,true,
	| true,true,true,false,
	| true,false,true,true,
	| true,true,true,false,
	| false,true,false,true,
	| false,false,false,true,
	| true,true,false,true,
	| true,false,true,false,
	| true,false,true,true,
	| true,true,false,true,
	| true,true,false,false, |];

nPrecs = 61;
pred = [1,1,1,2,2,2,3,3,3,4,5,5,5,6,6,7,7,7,8,9,10,10,11,11,12,12,12,13,13,13,14,15,16,17,17,18,19,20,20,21,22,23,24,25,26,27,28,29,30,31,32,33,34,35,35,36,37,38,39,40,41];
succ = [2,3,4,10,6,8,19,5,7,35,20,39,40,28,15,9,11,12,38,24,17,23,29,14,18,13,22,33,32,16,27,21,28,34,22,34,25,25,30,27,32,31,37,26,41,34,35,31,38,36,35,37,39,37,39,40,41,41,42,42,42];

nUnrels = 571;
unpred = [2,2,2,2,2,2,2,2,2,2,2,2,2,2,2,2,2,2,2,3,3,3,3,3,3,3,3,4,4,4,4,4,4,4,4,4,4,4,4,4,4,4,4,4,4,4,4,4,4,4,4,4,4,4,4,4,4,4,4,4,5,5,5,5,5,5,5,5,5,5,5,5,5,5,5,5,5,5,5,5,5,5,5,5,5,5,5,5,6,6,6,6,6,6,6,6,6,6,6,6,6,6,6,6,6,6,6,6,6,6,6,6,6,6,7,7,7,7,7,7,7,7,7,7,7,7,8,8,8,8,8,8,8,8,8,8,8,8,8,8,8,8,8,8,8,8,8,8,8,8,8,8,8,8,8,8,8,9,9,9,9,9,9,9,9,9,9,9,9,9,9,9,9,9,9,9,9,9,9,9,9,9,9,9,9,9,10,10,10,10,10,10,10,10,10,10,10,10,10,10,10,10,10,10,10,11,11,11,11,11,11,11,11,11,11,11,11,11,11,11,11,11,11,11,11,11,11,12,12,12,12,12,12,12,12,12,12,12,12,12,12,12,12,12,13,13,13,13,13,13,13,13,13,13,13,13,13,13,13,13,13,13,13,13,14,14,14,14,14,14,14,14,14,14,14,14,14,14,14,14,14,14,14,14,14,14,14,14,15,15,15,15,15,15,15,15,15,15,15,15,15,15,15,15,15,15,15,15,15,15,16,16,16,16,16,16,16,16,16,16,16,16,16,16,16,16,16,16,16,16,17,17,17,17,17,17,17,17,17,17,17,17,17,17,17,17,17,18,18,18,18,18,18,18,18,18,18,18,18,18,18,18,18,18,18,18,18,18,19,19,19,19,19,19,19,19,19,19,19,19,19,19,19,19,19,19,19,20,20,20,20,20,20,20,20,20,20,20,20,20,20,20,20,21,21,21,21,21,21,21,21,21,21,21,21,21,21,21,21,21,22,22,22,22,22,22,22,22,22,22,22,22,22,22,23,23,23,23,23,23,23,23,23,23,23,23,23,23,23,24,24,24,24,24,24,24,24,24,24,24,24,24,24,24,25,25,25,25,25,25,25,25,25,25,25,25,25,25,26,26,26,26,26,26,26,26,26,26,26,26,26,26,27,27,27,27,27,27,27,27,27,27,27,27,28,28,28,28,28,28,28,28,28,29,29,29,29,29,29,29,29,29,30,30,30,30,30,30,30,30,30,31,31,31,31,31,31,31,31,32,32,32,32,32,33,33,33,33,33,33,34,34,34,34,34,34,35,35,35,36,36,36,36,37,37,37,38,38,39,39,40];
unsucc = [3,4,5,7,9,11,12,13,14,16,18,19,20,24,25,26,29,30,33,4,6,8,10,15,17,21,23,5,6,7,8,9,10,11,12,13,14,15,16,17,18,19,20,21,22,23,24,25,26,27,28,29,30,31,32,33,34,36,38,40,6,7,8,9,10,11,12,13,14,15,16,17,18,19,21,22,23,24,27,28,29,31,32,33,34,35,36,37,7,8,9,10,11,12,13,14,16,17,18,19,20,22,23,24,25,26,29,30,31,32,33,36,38,40,8,10,15,17,19,20,21,23,25,26,30,38,9,10,11,12,13,14,15,16,17,18,19,20,21,22,23,24,25,26,27,28,29,30,31,32,33,34,35,36,37,39,40,10,11,12,13,14,15,16,17,18,19,20,21,22,23,25,26,27,28,29,30,31,32,33,34,35,36,38,39,40,11,12,13,14,15,16,18,19,20,21,24,25,26,27,28,29,30,33,38,12,13,15,16,17,18,19,20,21,22,23,24,25,26,28,30,32,33,35,37,38,41,14,15,17,19,20,21,23,24,25,26,27,29,30,31,36,38,40,14,15,17,18,19,20,21,22,23,24,25,26,27,29,30,31,34,36,38,40,15,16,17,18,19,20,21,22,23,24,25,26,28,29,30,31,32,33,35,36,37,38,40,41,16,17,18,19,20,22,23,24,25,26,28,29,30,31,32,33,35,36,37,38,40,41,17,18,19,20,21,22,23,24,25,26,27,29,30,31,32,33,34,36,38,40,18,19,20,21,23,24,25,26,27,28,29,30,31,33,36,38,40,19,20,21,22,23,24,25,26,27,28,29,30,31,32,33,35,36,37,38,40,41,20,21,22,23,24,27,28,29,30,31,32,33,34,35,36,37,38,39,40,21,22,23,24,27,28,29,31,32,33,34,35,36,37,39,40,22,23,24,25,26,28,29,30,31,32,33,35,36,37,38,40,41,23,24,25,26,27,28,29,30,31,33,34,36,38,40,24,25,26,27,28,29,30,32,33,34,35,37,38,39,41,25,26,27,28,29,30,31,32,33,34,35,36,38,39,40,27,28,29,30,31,32,33,34,35,36,37,38,39,40,27,28,29,30,31,32,33,34,35,36,37,38,39,40,28,29,30,31,32,33,35,36,37,38,40,41,29,30,31,32,33,34,36,38,40,30,32,33,34,35,37,38,39,41,31,32,33,34,35,36,37,39,40,32,33,34,35,37,38,39,41,33,34,36,38,40,34,35,36,38,39,40,35,36,37,38,40,41,36,38,40,37,38,39,41,38,39,40,39,40,40,41,41];

USEFUL_RES = [{},
	{2,3,4,5,6,7,8,9,10,11,12,13,14,15,17,18,22,23,25,27,28,29,30,31,32,33,34,36,37,38,39,41,42,43,44,45},
	{1,2,3,4,5,6,7,8,9,10,11,12,13,14,15,16,17,18,19,20,21,22,23,24,25,26,27,28,29,30,31,32,33,34,35,36,37,38,39,40,41,42,43,44,45},
	{1,2,3,4,5,6,7,8,9,10,11,12,13,14,15,16,17,18,19,20,21,22,23,24,25,26,27,28,29,30,31,32,33,34,35,36,37,38,39,40,41,42,43,44,45},
	{1,2,3,4,5,6,7,8,9,10,11,12,13,14,15,16,17,18,19,20,21,22,23,24,25,26,27,28,29,30,31,32,33,34,35,36,37,38,39,40,41,42,43,44,45},
	{1,2,3,4,5,6,8,9,10,11,12,15,16,17,18,19,20,21,22,23,24,25,26,27,29,30,33,34,35,36,37,38,39,40,41,42,43,44},
	{2,3,4,5,6,7,8,9,10,11,12,13,14,15,16,17,18,21,22,23,24,25,26,27,28,29,30,31,32,33,34,35,36,37,38,39,40,41,42,43,44,45},
	{1,2,3,4,5,6,7,8,9,10,11,12,13,14,15,16,17,18,19,20,21,22,23,24,25,26,27,28,29,30,31,32,33,34,35,36,37,38,39,40,41,42,43,44,45},
	{1,2,3,4,5,6,7,8,9,10,11,12,13,14,15,16,17,18,19,20,21,22,23,24,25,26,27,28,29,30,31,32,33,34,35,36,37,38,39,40,41,42,43,44,45},
	{2,3,4,5,6,8,9,10,11,12,15,16,17,18,21,22,23,24,25,26,27,28,29,30,32,33,34,35,36,37,38,39,40,41,42,43,44,45},
	{1,2,3,4,5,6,8,9,10,11,12,15,16,17,18,19,20,21,22,23,24,25,26,27,28,29,30,32,33,34,35,36,37,38,39,40,41,42,43,44,45},
	{1,2,3,4,5,6,8,9,10,11,12,15,16,17,18,19,20,21,22,23,24,25,26,27,29,30,33,34,35,36,37,38,39,40,41,42,43,44},
	{1,2,3,4,5,6,8,9,10,11,12,15,16,17,18,19,20,21,22,23,24,25,26,27,28,29,30,32,33,34,35,36,37,38,39,40,41,42,43,44,45},
	{1,2,3,4,5,6,7,8,9,10,11,12,13,14,15,16,17,18,19,20,21,22,23,24,25,26,27,28,29,30,31,32,33,34,35,36,37,38,39,40,41,42,43,44,45},
	{1,2,3,4,5,6,8,9,10,11,12,15,16,17,18,19,20,21,22,23,24,25,26,27,28,29,30,32,33,34,35,36,37,38,39,40,41,42,43,44,45},
	{1,2,3,4,5,6,7,8,9,10,11,12,13,14,15,16,17,18,19,20,21,22,23,24,25,26,27,28,29,30,31,32,33,34,35,36,37,38,39,40,41,42,43,44,45},
	{1,2,3,4,5,6,7,8,9,10,11,12,13,14,15,16,17,18,19,20,21,22,23,24,25,26,27,28,29,30,31,32,33,34,35,36,37,38,39,40,41,42,43,44,45},
	{1,2,3,4,5,6,8,9,10,11,12,15,16,17,18,19,20,21,22,23,24,25,26,27,28,29,30,32,33,34,35,36,37,38,39,40,41,42,43,44,45},
	{1,2,3,4,5,6,7,8,9,10,11,12,13,14,15,16,17,18,19,20,21,22,23,24,25,26,27,28,29,30,31,32,33,34,35,36,37,38,39,40,41,42,43,44,45},
	{2,3,4,5,6,7,8,9,10,11,12,13,14,15,16,17,18,21,22,23,24,25,26,27,28,29,30,31,32,33,34,35,36,37,38,39,40,41,42,43,44,45},
	{2,3,4,5,6,7,8,9,10,11,12,13,14,15,16,17,18,21,22,23,24,25,26,27,28,29,30,31,32,33,34,35,36,37,38,39,40,41,42,43,44,45},
	{1,2,3,4,5,6,7,8,9,10,11,12,13,14,15,16,17,18,19,20,21,22,23,24,25,26,27,28,29,30,31,32,33,34,35,36,37,38,39,40,41,42,43,44,45},
	{2,3,4,5,6,7,8,9,10,11,12,13,14,15,16,17,18,21,22,23,24,25,26,27,28,29,30,31,32,33,34,35,36,37,38,39,40,41,42,43,44,45},
	{1,2,3,4,5,6,8,9,10,11,12,15,16,17,18,19,20,21,22,23,24,25,26,27,29,30,33,34,35,36,37,38,39,40,41,42,43,44},
	{2,3,5,6,7,8,9,10,11,12,13,14,16,17,18,21,22,23,24,26,27,28,29,30,31,32,33,34,35,36,37,38,39,40,41,43,44,45},
	{1,2,3,4,5,6,8,9,11,12,15,16,17,18,19,20,22,23,25,28,29,30,32,33,34,36,37,38,41,42,43,44,45},
	{1,2,3,4,5,6,7,8,9,10,11,12,13,14,15,16,17,18,19,20,21,22,23,24,25,26,27,28,29,30,31,32,33,34,35,36,37,38,39,40,41,42,43,44,45},
	{2,3,5,6,7,8,9,10,11,12,13,14,16,17,18,21,22,23,24,26,27,28,29,30,31,32,33,34,35,36,37,38,39,40,41,43,44,45},
	{1,2,3,4,5,6,7,8,9,10,11,12,13,14,15,16,17,18,19,20,21,22,23,24,25,26,27,28,29,30,31,32,33,34,35,36,37,38,39,40,41,42,43,44,45},
	{1,2,3,4,5,6,7,8,9,10,11,12,13,14,15,16,17,18,19,20,21,22,23,24,25,26,27,28,29,30,31,32,33,34,35,36,37,38,39,40,41,42,43,44,45},
	{1,2,3,4,5,6,7,8,9,10,11,12,13,14,15,16,17,18,19,20,21,22,23,24,25,26,27,28,29,30,31,32,33,34,35,36,37,38,39,40,41,42,43,44,45},
	{2,3,4,5,6,8,9,10,11,12,15,16,17,18,21,22,23,24,25,26,27,28,29,30,32,33,34,35,36,37,38,39,40,41,42,43,44,45},
	{2,3,4,5,6,8,9,10,11,12,15,16,17,18,21,22,23,24,25,26,27,28,29,30,32,33,34,35,36,37,38,39,40,41,42,43,44,45},
	{1,2,3,4,5,6,7,8,9,10,11,12,13,14,15,16,17,18,19,20,21,22,23,24,25,26,27,28,29,30,31,32,33,34,35,36,37,38,39,40,41,42,43,44,45},
	{1,2,3,4,5,6,8,9,11,12,15,16,17,18,19,20,22,23,25,28,29,30,32,33,34,36,37,38,41,42,43,44,45},
	{1,2,3,4,5,6,8,9,11,12,15,16,17,18,19,20,22,23,25,28,29,30,32,33,34,36,37,38,41,42,43,44,45},
	{1,2,3,4,5,6,7,8,9,10,11,12,13,14,15,16,17,18,19,20,22,23,25,27,28,29,30,31,32,33,36,37,38,39,41,42,43,44,45},
	{2,3,5,6,7,8,9,10,11,12,13,14,16,17,18,21,22,23,24,26,27,28,29,30,31,32,33,34,35,36,37,38,39,40,41,43,44,45},
	{1,2,3,4,5,6,7,8,9,10,11,12,13,14,15,16,17,18,19,20,21,22,23,24,25,26,27,28,29,30,31,32,33,34,35,36,37,38,39,40,41,42,43,44,45},
	{1,2,3,4,5,6,7,8,9,10,11,12,13,14,15,16,17,18,19,20,21,22,23,24,25,26,27,28,29,30,31,32,33,34,35,36,37,38,39,40,41,42,43,44,45},
	{2,3,4,5,6,7,8,9,10,11,12,13,14,15,17,18,22,23,25,27,28,29,30,31,32,33,34,36,37,38,39,41,42,43,44,45},
	{}];

POTENTIAL_ACT = [{3,4,5,6,8,9,11,12,13,14,15,16,17,18,19,22,24,26,27,29,30,31,34,35,36,37,39,40},
	{2,3,4,5,6,7,8,9,10,11,12,13,14,15,16,17,18,19,20,21,22,23,24,25,26,27,28,29,30,31,32,33,34,35,36,37,38,39,40,41},
	{2,3,4,5,6,7,8,9,10,11,12,13,14,15,16,17,18,19,20,21,22,23,24,25,26,27,28,29,30,31,32,33,34,35,36,37,38,39,40,41},
	{2,3,4,5,6,7,8,9,10,11,12,13,14,15,16,17,18,19,20,21,22,23,24,26,27,29,30,31,32,33,34,35,36,37,39,40,41},
	{2,3,4,5,6,7,8,9,10,11,12,13,14,15,16,17,18,19,20,21,22,23,24,25,26,27,28,29,30,31,32,33,34,35,36,37,38,39,40,41},
	{2,3,4,5,6,7,8,9,10,11,12,13,14,15,16,17,18,19,20,21,22,23,24,25,26,27,28,29,30,31,32,33,34,35,36,37,38,39,40,41},
	{2,3,4,5,7,8,9,14,16,17,19,20,21,22,23,25,27,28,29,30,31,34,37,38,39,40,41},
	{2,3,4,5,6,7,8,9,10,11,12,13,14,15,16,17,18,19,20,21,22,23,24,25,26,27,28,29,30,31,32,33,34,35,36,37,38,39,40,41},
	{2,3,4,5,6,7,8,9,10,11,12,13,14,15,16,17,18,19,20,21,22,23,24,25,26,27,28,29,30,31,32,33,34,35,36,37,38,39,40,41},
	{2,3,4,5,6,7,8,9,10,11,12,13,14,15,16,17,18,19,20,21,22,23,24,25,27,28,29,30,31,32,33,34,37,38,39,40,41},
	{2,3,4,5,6,7,8,9,10,11,12,13,14,15,16,17,18,19,20,21,22,23,24,25,26,27,28,29,30,31,32,33,34,35,36,37,38,39,40,41},
	{2,3,4,5,6,7,8,9,10,11,12,13,14,15,16,17,18,19,20,21,22,23,24,25,26,27,28,29,30,31,32,33,34,35,36,37,38,39,40,41},
	{2,3,4,5,7,8,9,14,16,17,19,20,21,22,23,25,27,28,29,30,31,34,37,38,39,40,41},
	{2,3,4,5,7,8,9,14,16,17,19,20,21,22,23,25,27,28,29,30,31,34,37,38,39,40,41},
	{2,3,4,5,6,7,8,9,10,11,12,13,14,15,16,17,18,19,20,21,22,23,24,26,27,29,30,31,32,33,34,35,36,37,39,40,41},
	{3,4,5,6,7,8,9,10,11,12,13,14,15,16,17,18,19,20,21,22,23,24,25,26,27,28,29,30,31,32,33,34,35,36,37,38,39,40},
	{2,3,4,5,6,7,8,9,10,11,12,13,14,15,16,17,18,19,20,21,22,23,24,25,26,27,28,29,30,31,32,33,34,35,36,37,38,39,40,41},
	{2,3,4,5,6,7,8,9,10,11,12,13,14,15,16,17,18,19,20,21,22,23,24,25,26,27,28,29,30,31,32,33,34,35,36,37,38,39,40,41},
	{3,4,5,6,8,9,11,12,13,14,15,16,17,18,19,22,24,26,27,29,30,31,34,35,36,37,39,40},
	{3,4,5,6,8,9,11,12,13,14,15,16,17,18,19,22,24,26,27,29,30,31,34,35,36,37,39,40},
	{3,4,5,6,7,8,9,10,11,12,13,14,15,16,17,18,19,20,21,22,23,24,25,27,28,29,30,31,32,33,34,38,39,40},
	{2,3,4,5,6,7,8,9,10,11,12,13,14,15,16,17,18,19,20,21,22,23,24,25,26,27,28,29,30,31,32,33,34,35,36,37,38,39,40,41},
	{2,3,4,5,6,7,8,9,10,11,12,13,14,15,16,17,18,19,20,21,22,23,24,25,26,27,28,29,30,31,32,33,34,35,36,37,38,39,40,41},
	{3,4,5,6,7,8,9,10,11,12,13,14,15,16,17,18,19,20,21,22,23,24,25,27,28,29,30,31,32,33,34,38,39,40},
	{2,3,4,5,6,7,8,9,10,11,12,13,14,15,16,17,18,19,20,21,22,23,24,26,27,29,30,31,32,33,34,35,36,37,39,40,41},
	{3,4,5,6,7,8,9,10,11,12,13,14,15,16,17,18,19,20,21,22,23,24,25,27,28,29,30,31,32,33,34,38,39,40},
	{2,3,4,5,6,7,8,9,10,11,12,13,14,15,16,17,18,19,20,21,22,23,24,25,27,28,29,30,31,32,33,34,37,38,39,40,41},
	{2,3,4,5,7,8,9,10,11,13,14,15,16,17,18,19,20,21,22,23,25,26,27,28,29,30,31,32,33,34,35,36,37,38,39,40,41},
	{2,3,4,5,6,7,8,9,10,11,12,13,14,15,16,17,18,19,20,21,22,23,24,25,26,27,28,29,30,31,32,33,34,35,36,37,38,39,40,41},
	{2,3,4,5,6,7,8,9,10,11,12,13,14,15,16,17,18,19,20,21,22,23,24,25,26,27,28,29,30,31,32,33,34,35,36,37,38,39,40,41},
	{2,3,4,5,7,8,9,14,16,17,19,20,21,22,23,25,27,28,29,30,31,34,37,38,39,40,41},
	{2,3,4,5,7,8,9,10,11,13,14,15,16,17,18,19,20,21,22,23,25,26,27,28,29,30,31,32,33,34,35,36,37,38,39,40,41},
	{2,3,4,5,6,7,8,9,10,11,12,13,14,15,16,17,18,19,20,21,22,23,24,25,26,27,28,29,30,31,32,33,34,35,36,37,38,39,40,41},
	{2,3,4,5,6,7,8,9,10,11,12,13,14,15,16,17,18,19,20,21,22,23,24,25,26,27,28,29,30,31,32,33,34,35,36,38,39,40,41},
	{3,4,5,6,7,8,9,10,11,12,13,14,15,16,17,18,19,20,21,22,23,24,25,27,28,29,30,31,32,33,34,38,39,40},
	{2,3,4,5,6,7,8,9,10,11,12,13,14,15,16,17,18,19,20,21,22,23,24,25,26,27,28,29,30,31,32,33,34,35,36,37,38,39,40,41},
	{2,3,4,5,6,7,8,9,10,11,12,13,14,15,16,17,18,19,20,21,22,23,24,25,26,27,28,29,30,31,32,33,34,35,36,37,38,39,40,41},
	{2,3,4,5,6,7,8,9,10,11,12,13,14,15,16,17,18,19,20,21,22,23,24,25,26,27,28,29,30,31,32,33,34,35,36,37,38,39,40,41},
	{2,3,4,5,6,7,8,9,10,11,12,13,14,15,16,17,18,19,20,21,22,23,24,25,27,28,29,30,31,32,33,34,37,38,39,40,41},
	{3,4,5,6,7,8,9,10,11,12,13,14,15,16,17,18,19,20,21,22,23,24,25,27,28,29,30,31,32,33,34,38,39,40},
	{2,3,4,5,6,7,8,9,10,11,12,13,14,15,16,17,18,19,20,21,22,23,24,25,26,27,28,29,30,31,32,33,34,35,36,37,38,39,40,41},
	{2,3,4,5,6,7,8,9,10,11,12,13,14,15,16,17,18,19,20,21,22,23,24,26,27,29,30,31,32,33,34,35,36,37,39,40,41},
	{2,3,4,5,6,7,8,9,10,11,12,13,14,15,16,17,18,19,20,21,22,23,24,25,26,27,28,29,30,31,32,33,34,35,36,37,38,39,40,41},
	{2,3,4,5,6,7,8,9,10,11,12,13,14,15,16,17,18,19,20,21,22,23,24,25,26,27,28,29,30,31,32,33,34,35,36,37,38,39,40,41},
	{2,3,4,5,7,8,9,10,11,13,14,15,16,17,18,19,20,21,22,23,25,26,27,28,29,30,31,32,33,34,35,36,37,38,39,40,41}];
